(set-logic QF_LIA)
(declare-fun x0 () Int)
(declare-fun x1 () Int)
(declare-fun x2 () Int)
(declare-fun x3 () Int)
(declare-fun x4 () Int)
(declare-fun x5 () Int)
(declare-fun x6 () Int)
(declare-fun x7 () Int)
(declare-fun x8 () Int)
(declare-fun x9 () Int)
(declare-fun A0 () Bool)
(declare-fun A1 () Bool)
(declare-fun A2 () Bool)
(declare-fun A3 () Bool)
(declare-fun A4 () Bool)
(declare-fun A5 () Bool)
(declare-fun A6 () Bool)
(declare-fun A7 () Bool)
(declare-fun A8 () Bool)
(declare-fun A9 () Bool)
(assert (let ((.def_0 (* (- 1) x3))) (let ((.def_1 (* (- 1) x9))) (let ((.def_2 (+ .def_1 .def_0))) (let ((.def_3 (< .def_2 1))) (let ((.def_4 (* 1 x0))) (let ((.def_5 (* 1 x7))) (let ((.def_6 (+ .def_5 .def_4))) (let ((.def_7 (< .def_6 (- 1)))) (let ((.def_8 (and .def_7 .def_3))) (let ((.def_9 (not .def_8))) (let ((.def_10 (not A5))) (let ((.def_11 (and .def_10 A0))) (let ((.def_12 (and .def_11 .def_9))) (let ((.def_13 (not .def_12))) (let ((.def_14 (* 1 x9))) (let ((.def_15 (< .def_14 (- 1)))) (let ((.def_16 (< .def_4 1))) (let ((.def_17 (not .def_16))) (let ((.def_18 (or .def_17 .def_15))) (let ((.def_19 (not A9))) (let ((.def_20 (* (- 1) x4))) (let ((.def_21 (< .def_20 (- 1)))) (let ((.def_22 (and .def_21 .def_19))) (let ((.def_23 (not .def_22))) (let ((.def_24 (= .def_23 .def_18))) (let ((.def_25 (or .def_24 .def_13))) (let ((.def_26 (and A2 A3))) (let ((.def_27 (not A6))) (let ((.def_28 (not A3))) (let ((.def_29 (and .def_28 .def_27))) (let ((.def_30 (= .def_29 .def_26))) (let ((.def_31 (not .def_30))) (let ((.def_32 (not A8))) (let ((.def_33 (and .def_32 A2))) (let ((.def_34 (not .def_33))) (let ((.def_35 (* (- 1) x7))) (let ((.def_36 (* 1 x4))) (let ((.def_37 (+ .def_36 .def_35))) (let ((.def_38 (< .def_37 (- 1)))) (let ((.def_39 (not .def_38))) (let ((.def_40 (not A1))) (let ((.def_41 (and .def_40 .def_39))) (let ((.def_42 (not .def_41))) (let ((.def_43 (or .def_42 .def_34))) (let ((.def_44 (not .def_43))) (let ((.def_45 (and .def_44 .def_31))) (let ((.def_46 (not .def_45))) (let ((.def_47 (or .def_46 .def_25))) (let ((.def_48 (* 1 x3))) (let ((.def_49 (< .def_48 1))) (let ((.def_50 (and .def_40 .def_49))) (let ((.def_51 (not .def_50))) (let ((.def_52 (not A0))) (let ((.def_53 (and .def_40 .def_52))) (let ((.def_54 (not .def_53))) (let ((.def_55 (and .def_54 .def_51))) (let ((.def_56 (not A2))) (let ((.def_57 (< .def_48 (- 1)))) (let ((.def_58 (and .def_57 .def_56))) (let ((.def_59 (not .def_58))) (let ((.def_60 (and A8 A2))) (let ((.def_61 (not .def_60))) (let ((.def_62 (or .def_61 .def_59))) (let ((.def_63 (or .def_62 .def_55))) (let ((.def_64 (< .def_1 1))) (let ((.def_65 (or A3 .def_64))) (let ((.def_66 (not .def_65))) (let ((.def_67 (not A4))) (let ((.def_68 (or .def_27 .def_67))) (let ((.def_69 (or .def_68 .def_66))) (let ((.def_70 (not .def_69))) (let ((.def_71 (or A9 .def_28))) (let ((.def_72 (or .def_28 .def_56))) (let ((.def_73 (and .def_72 .def_71))) (let ((.def_74 (not .def_73))) (let ((.def_75 (and .def_74 .def_70))) (let ((.def_76 (not .def_75))) (let ((.def_77 (or .def_76 .def_63))) (let ((.def_78 (or .def_77 .def_47))) (let ((.def_79 (or A6 .def_27))) (let ((.def_80 (+ .def_1 .def_5))) (let ((.def_81 (< .def_80 1))) (let ((.def_82 (and .def_81 A0))) (let ((.def_83 (= .def_82 .def_79))) (let ((.def_84 (and .def_19 .def_16))) (let ((.def_85 (not .def_84))) (let ((.def_86 (* (- 1) x1))) (let ((.def_87 (< .def_86 (- 1)))) (let ((.def_88 (not .def_87))) (let ((.def_89 (and A1 .def_88))) (let ((.def_90 (= .def_89 .def_85))) (let ((.def_91 (not .def_90))) (let ((.def_92 (and .def_91 .def_83))) (let ((.def_93 (* 1 x2))) (let ((.def_94 (< .def_93 1))) (let ((.def_95 (* 1 x5))) (let ((.def_96 (* (- 1) x8))) (let ((.def_97 (+ .def_96 .def_95))) (let ((.def_98 (< .def_97 1))) (let ((.def_99 (and .def_98 .def_94))) (let ((.def_100 (and A7 .def_27))) (let ((.def_101 (not .def_100))) (let ((.def_102 (or .def_101 .def_99))) (let ((.def_103 (and .def_67 .def_10))) (let ((.def_104 (not .def_103))) (let ((.def_105 (* 1 x1))) (let ((.def_106 (+ .def_14 .def_105))) (let ((.def_107 (< .def_106 (- 1)))) (let ((.def_108 (not .def_107))) (let ((.def_109 (* 1 x8))) (let ((.def_110 (+ .def_93 .def_109))) (let ((.def_111 (< .def_110 (- 1)))) (let ((.def_112 (or .def_111 .def_108))) (let ((.def_113 (or .def_112 .def_104))) (let ((.def_114 (not .def_113))) (let ((.def_115 (or .def_114 .def_102))) (let ((.def_116 (not .def_115))) (let ((.def_117 (or .def_116 .def_92))) (let ((.def_118 (not .def_117))) (let ((.def_119 (* (- 1) x2))) (let ((.def_120 (+ .def_1 .def_119))) (let ((.def_121 (< .def_120 (- 1)))) (let ((.def_122 (not .def_121))) (let ((.def_123 (or .def_32 .def_122))) (let ((.def_124 (not .def_123))) (let ((.def_125 (or .def_32 .def_40))) (let ((.def_126 (and .def_125 .def_124))) (let ((.def_127 (= .def_17 A0))) (let ((.def_128 (not .def_127))) (let ((.def_129 (< .def_14 1))) (let ((.def_130 (or .def_129 A7))) (let ((.def_131 (= .def_130 .def_128))) (let ((.def_132 (and .def_131 .def_126))) (let ((.def_133 (+ .def_5 .def_93))) (let ((.def_134 (< .def_133 (- 1)))) (let ((.def_135 (or A0 .def_134))) (let ((.def_136 (not .def_135))) (let ((.def_137 (* (- 1) x0))) (let ((.def_138 (+ .def_14 .def_137))) (let ((.def_139 (< .def_138 1))) (let ((.def_140 (and .def_139 .def_52))) (let ((.def_141 (not .def_140))) (let ((.def_142 (and .def_141 .def_136))) (let ((.def_143 (not .def_142))) (let ((.def_144 (or .def_27 A6))) (let ((.def_145 (+ .def_35 .def_137))) (let ((.def_146 (< .def_145 1))) (let ((.def_147 (not .def_146))) (let ((.def_148 (and .def_147 .def_67))) (let ((.def_149 (or .def_148 .def_144))) (let ((.def_150 (not .def_149))) (let ((.def_151 (or .def_150 .def_143))) (let ((.def_152 (or .def_151 .def_132))) (let ((.def_153 (or .def_152 .def_118))) (let ((.def_154 (and .def_153 .def_78))) (let ((.def_155 (not .def_154))) (let ((.def_156 (< .def_119 (- 1)))) (let ((.def_157 (not A7))) (let ((.def_158 (or .def_157 .def_156))) (let ((.def_159 (not .def_158))) (let ((.def_160 (+ .def_35 .def_105))) (let ((.def_161 (< .def_160 1))) (let ((.def_162 (and A2 .def_161))) (let ((.def_163 (not .def_162))) (let ((.def_164 (or .def_163 .def_159))) (let ((.def_165 (not .def_164))) (let ((.def_166 (+ .def_5 .def_96))) (let ((.def_167 (< .def_166 1))) (let ((.def_168 (< .def_96 1))) (let ((.def_169 (or .def_168 .def_167))) (let ((.def_170 (not .def_169))) (let ((.def_171 (* (- 1) x5))) (let ((.def_172 (< .def_171 1))) (let ((.def_173 (not .def_172))) (let ((.def_174 (or .def_40 .def_173))) (let ((.def_175 (and .def_174 .def_170))) (let ((.def_176 (and .def_175 .def_165))) (let ((.def_177 (not .def_176))) (let ((.def_178 (* 1 x6))) (let ((.def_179 (< .def_178 1))) (let ((.def_180 (not .def_179))) (let ((.def_181 (+ .def_48 .def_119))) (let ((.def_182 (< .def_181 (- 1)))) (let ((.def_183 (and .def_182 .def_180))) (let ((.def_184 (not .def_183))) (let ((.def_185 (* (- 1) x6))) (let ((.def_186 (< .def_185 (- 1)))) (let ((.def_187 (not .def_186))) (let ((.def_188 (and .def_187 A7))) (let ((.def_189 (or .def_188 .def_184))) (let ((.def_190 (or A1 A0))) (let ((.def_191 (not .def_190))) (let ((.def_192 (+ .def_86 .def_48))) (let ((.def_193 (< .def_192 (- 1)))) (let ((.def_194 (not .def_193))) (let ((.def_195 (and A6 .def_194))) (let ((.def_196 (not .def_195))) (let ((.def_197 (or .def_196 .def_191))) (let ((.def_198 (or .def_197 .def_189))) (let ((.def_199 (not .def_198))) (let ((.def_200 (and .def_199 .def_177))) (let ((.def_201 (not .def_15))) (let ((.def_202 (or .def_201 A0))) (let ((.def_203 (+ .def_119 .def_96))) (let ((.def_204 (< .def_203 (- 1)))) (let ((.def_205 (and A0 .def_204))) (let ((.def_206 (not .def_205))) (let ((.def_207 (or .def_206 .def_202))) (let ((.def_208 (+ .def_86 .def_35))) (let ((.def_209 (< .def_208 1))) (let ((.def_210 (+ .def_93 .def_5))) (let ((.def_211 (< .def_210 (- 1)))) (let ((.def_212 (not .def_211))) (let ((.def_213 (and .def_212 .def_209))) (let ((.def_214 (not .def_213))) (let ((.def_215 (+ .def_14 .def_178))) (let ((.def_216 (< .def_215 (- 1)))) (let ((.def_217 (or .def_216 .def_157))) (let ((.def_218 (not .def_217))) (let ((.def_219 (or .def_218 .def_214))) (let ((.def_220 (or .def_219 .def_207))) (let ((.def_221 (< .def_178 (- 1)))) (let ((.def_222 (not .def_221))) (let ((.def_223 (and .def_222 A2))) (let ((.def_224 (< .def_5 1))) (let ((.def_225 (not .def_224))) (let ((.def_226 (and .def_225 A1))) (let ((.def_227 (not .def_226))) (let ((.def_228 (or .def_227 .def_223))) (let ((.def_229 (+ .def_48 .def_36))) (let ((.def_230 (< .def_229 1))) (let ((.def_231 (or .def_230 .def_56))) (let ((.def_232 (not .def_231))) (let ((.def_233 (or .def_10 A3))) (let ((.def_234 (not .def_233))) (let ((.def_235 (or .def_234 .def_232))) (let ((.def_236 (and .def_235 .def_228))) (let ((.def_237 (not .def_236))) (let ((.def_238 (or .def_237 .def_220))) (let ((.def_239 (and .def_238 .def_200))) (let ((.def_240 (not .def_239))) (let ((.def_241 (+ .def_96 .def_1))) (let ((.def_242 (< .def_241 1))) (let ((.def_243 (not .def_242))) (let ((.def_244 (+ .def_105 .def_137))) (let ((.def_245 (< .def_244 1))) (let ((.def_246 (not .def_245))) (let ((.def_247 (and .def_246 .def_243))) (let ((.def_248 (not .def_247))) (let ((.def_249 (or A4 A2))) (let ((.def_250 (= .def_249 .def_248))) (let ((.def_251 (not .def_250))) (let ((.def_252 (and .def_52 .def_19))) (let ((.def_253 (+ .def_95 .def_14))) (let ((.def_254 (< .def_253 (- 1)))) (let ((.def_255 (not .def_254))) (let ((.def_256 (and .def_255 A5))) (let ((.def_257 (not .def_256))) (let ((.def_258 (= .def_257 .def_252))) (let ((.def_259 (and .def_258 .def_251))) (let ((.def_260 (and A7 .def_56))) (let ((.def_261 (not .def_260))) (let ((.def_262 (or .def_32 A2))) (let ((.def_263 (not .def_262))) (let ((.def_264 (and .def_263 .def_261))) (let ((.def_265 (+ .def_171 .def_20))) (let ((.def_266 (< .def_265 1))) (let ((.def_267 (not .def_266))) (let ((.def_268 (+ .def_137 .def_95))) (let ((.def_269 (< .def_268 1))) (let ((.def_270 (not .def_269))) (let ((.def_271 (or .def_270 .def_267))) (let ((.def_272 (not .def_271))) (let ((.def_273 (+ .def_35 .def_86))) (let ((.def_274 (< .def_273 1))) (let ((.def_275 (not .def_274))) (let ((.def_276 (+ .def_0 .def_95))) (let ((.def_277 (< .def_276 (- 1)))) (let ((.def_278 (not .def_277))) (let ((.def_279 (or .def_278 .def_275))) (let ((.def_280 (not .def_279))) (let ((.def_281 (or .def_280 .def_272))) (let ((.def_282 (and .def_281 .def_264))) (let ((.def_283 (and .def_282 .def_259))) (let ((.def_284 (not .def_283))) (let ((.def_285 (and A1 .def_32))) (let ((.def_286 (< .def_20 1))) (let ((.def_287 (not .def_286))) (let ((.def_288 (< .def_96 (- 1)))) (let ((.def_289 (or .def_288 .def_287))) (let ((.def_290 (or .def_289 .def_285))) (let ((.def_291 (not .def_290))) (let ((.def_292 (+ .def_105 .def_171))) (let ((.def_293 (< .def_292 (- 1)))) (let ((.def_294 (not .def_293))) (let ((.def_295 (and .def_19 .def_294))) (let ((.def_296 (not .def_295))) (let ((.def_297 (+ .def_178 .def_36))) (let ((.def_298 (< .def_297 (- 1)))) (let ((.def_299 (or .def_10 .def_298))) (let ((.def_300 (or .def_299 .def_296))) (let ((.def_301 (and .def_300 .def_291))) (let ((.def_302 (not .def_129))) (let ((.def_303 (+ .def_4 .def_93))) (let ((.def_304 (< .def_303 1))) (let ((.def_305 (and .def_304 .def_302))) (let ((.def_306 (not .def_305))) (let ((.def_307 (+ .def_48 .def_171))) (let ((.def_308 (< .def_307 1))) (let ((.def_309 (not .def_308))) (let ((.def_310 (+ .def_178 .def_86))) (let ((.def_311 (< .def_310 (- 1)))) (let ((.def_312 (or .def_311 .def_309))) (let ((.def_313 (or .def_312 .def_306))) (let ((.def_314 (= .def_32 .def_201))) (let ((.def_315 (and .def_19 .def_27))) (let ((.def_316 (or .def_315 .def_314))) (let ((.def_317 (not .def_316))) (let ((.def_318 (and .def_317 .def_313))) (let ((.def_319 (not .def_318))) (let ((.def_320 (or .def_319 .def_301))) (let ((.def_321 (not .def_320))) (let ((.def_322 (= .def_321 .def_284))) (let ((.def_323 (not .def_322))) (let ((.def_324 (or .def_323 .def_240))) (let ((.def_325 (not .def_324))) (let ((.def_326 (or .def_325 .def_155))) (let ((.def_327 (not .def_326))) (let ((.def_328 (< .def_95 (- 1)))) (let ((.def_329 (not .def_328))) (let ((.def_330 (or .def_27 .def_329))) (let ((.def_331 (not .def_330))) (let ((.def_332 (< .def_109 (- 1)))) (let ((.def_333 (not .def_332))) (let ((.def_334 (or .def_333 .def_32))) (let ((.def_335 (or .def_334 .def_331))) (let ((.def_336 (+ .def_185 .def_96))) (let ((.def_337 (< .def_336 1))) (let ((.def_338 (or .def_337 A6))) (let ((.def_339 (+ .def_14 .def_96))) (let ((.def_340 (< .def_339 1))) (let ((.def_341 (not .def_340))) (let ((.def_342 (+ .def_86 .def_93))) (let ((.def_343 (< .def_342 (- 1)))) (let ((.def_344 (and .def_343 .def_341))) (let ((.def_345 (= .def_344 .def_338))) (let ((.def_346 (or .def_345 .def_335))) (let ((.def_347 (not .def_346))) (let ((.def_348 (+ .def_48 .def_1))) (let ((.def_349 (< .def_348 1))) (let ((.def_350 (not .def_57))) (let ((.def_351 (or .def_350 .def_349))) (let ((.def_352 (not .def_351))) (let ((.def_353 (+ .def_171 .def_105))) (let ((.def_354 (< .def_353 (- 1)))) (let ((.def_355 (not .def_354))) (let ((.def_356 (or .def_355 A1))) (let ((.def_357 (not .def_356))) (let ((.def_358 (and .def_357 .def_352))) (let ((.def_359 (not .def_358))) (let ((.def_360 (< .def_5 (- 1)))) (let ((.def_361 (+ .def_137 .def_96))) (let ((.def_362 (< .def_361 (- 1)))) (let ((.def_363 (and .def_362 .def_360))) (let ((.def_364 (not .def_363))) (let ((.def_365 (or .def_27 .def_40))) (let ((.def_366 (and .def_365 .def_364))) (let ((.def_367 (and .def_366 .def_359))) (let ((.def_368 (or .def_367 .def_347))) (let ((.def_369 (+ .def_20 .def_48))) (let ((.def_370 (< .def_369 1))) (let ((.def_371 (not .def_370))) (let ((.def_372 (and A4 .def_371))) (let ((.def_373 (not .def_372))) (let ((.def_374 (+ .def_96 .def_48))) (let ((.def_375 (< .def_374 (- 1)))) (let ((.def_376 (not .def_375))) (let ((.def_377 (+ .def_4 .def_171))) (let ((.def_378 (< .def_377 (- 1)))) (let ((.def_379 (and .def_378 .def_376))) (let ((.def_380 (and .def_379 .def_373))) (let ((.def_381 (and .def_28 .def_157))) (let ((.def_382 (or .def_222 .def_28))) (let ((.def_383 (not .def_382))) (let ((.def_384 (and .def_383 .def_381))) (let ((.def_385 (not .def_384))) (let ((.def_386 (and .def_385 .def_380))) (let ((.def_387 (not .def_386))) (let ((.def_388 (< .def_36 (- 1)))) (let ((.def_389 (not .def_388))) (let ((.def_390 (= .def_389 .def_157))) (let ((.def_391 (< .def_0 (- 1)))) (let ((.def_392 (not .def_391))) (let ((.def_393 (and A6 .def_392))) (let ((.def_394 (or .def_393 .def_390))) (let ((.def_395 (not .def_394))) (let ((.def_396 (< .def_106 1))) (let ((.def_397 (or .def_396 A2))) (let ((.def_398 (+ .def_95 .def_1))) (let ((.def_399 (< .def_398 1))) (let ((.def_400 (not .def_399))) (let ((.def_401 (and .def_40 .def_400))) (let ((.def_402 (not .def_401))) (let ((.def_403 (and .def_402 .def_397))) (let ((.def_404 (not .def_403))) (let ((.def_405 (and .def_404 .def_395))) (let ((.def_406 (and .def_405 .def_387))) (let ((.def_407 (or .def_406 .def_368))) (let ((.def_408 (not .def_407))) (let ((.def_409 (+ .def_119 .def_14))) (let ((.def_410 (< .def_409 1))) (let ((.def_411 (< .def_171 (- 1)))) (let ((.def_412 (or .def_411 .def_410))) (let ((.def_413 (not .def_412))) (let ((.def_414 (< .def_185 1))) (let ((.def_415 (not .def_414))) (let ((.def_416 (or .def_415 .def_201))) (let ((.def_417 (not .def_416))) (let ((.def_418 (and .def_417 .def_413))) (let ((.def_419 (not .def_418))) (let ((.def_420 (< .def_1 (- 1)))) (let ((.def_421 (not .def_420))) (let ((.def_422 (and A9 .def_421))) (let ((.def_423 (not .def_422))) (let ((.def_424 (+ .def_105 .def_20))) (let ((.def_425 (< .def_424 (- 1)))) (let ((.def_426 (not .def_425))) (let ((.def_427 (and .def_426 A2))) (let ((.def_428 (not .def_427))) (let ((.def_429 (or .def_428 .def_423))) (let ((.def_430 (not .def_429))) (let ((.def_431 (and .def_430 .def_419))) (let ((.def_432 (+ .def_14 .def_95))) (let ((.def_433 (< .def_432 1))) (let ((.def_434 (not .def_433))) (let ((.def_435 (or .def_32 .def_434))) (let ((.def_436 (+ .def_119 .def_178))) (let ((.def_437 (< .def_436 (- 1)))) (let ((.def_438 (not .def_437))) (let ((.def_439 (or .def_438 .def_157))) (let ((.def_440 (not .def_439))) (let ((.def_441 (and .def_440 .def_435))) (let ((.def_442 (not .def_441))) (let ((.def_443 (+ .def_20 .def_35))) (let ((.def_444 (< .def_443 1))) (let ((.def_445 (not .def_444))) (let ((.def_446 (and .def_445 .def_40))) (let ((.def_447 (+ .def_105 .def_4))) (let ((.def_448 (< .def_447 (- 1)))) (let ((.def_449 (+ .def_93 .def_96))) (let ((.def_450 (< .def_449 1))) (let ((.def_451 (or .def_450 .def_448))) (let ((.def_452 (or .def_451 .def_446))) (let ((.def_453 (not .def_452))) (let ((.def_454 (and .def_453 .def_442))) (let ((.def_455 (not .def_454))) (let ((.def_456 (and .def_455 .def_431))) (let ((.def_457 (+ .def_95 .def_109))) (let ((.def_458 (< .def_457 1))) (let ((.def_459 (not .def_458))) (let ((.def_460 (or A9 .def_459))) (let ((.def_461 (not .def_460))) (let ((.def_462 (+ .def_5 .def_86))) (let ((.def_463 (< .def_462 1))) (let ((.def_464 (not .def_463))) (let ((.def_465 (not .def_168))) (let ((.def_466 (= .def_465 .def_464))) (let ((.def_467 (not .def_466))) (let ((.def_468 (and .def_467 .def_461))) (let ((.def_469 (and .def_67 .def_222))) (let ((.def_470 (not .def_469))) (let ((.def_471 (or .def_15 A4))) (let ((.def_472 (not .def_471))) (let ((.def_473 (and .def_472 .def_470))) (let ((.def_474 (or .def_473 .def_468))) (let ((.def_475 (+ .def_86 .def_109))) (let ((.def_476 (< .def_475 1))) (let ((.def_477 (not .def_476))) (let ((.def_478 (or .def_477 A0))) (let ((.def_479 (not .def_478))) (let ((.def_480 (+ .def_0 .def_119))) (let ((.def_481 (< .def_480 (- 1)))) (let ((.def_482 (or .def_481 .def_87))) (let ((.def_483 (and .def_482 .def_479))) (let ((.def_484 (or .def_67 A2))) (let ((.def_485 (+ .def_109 .def_36))) (let ((.def_486 (< .def_485 (- 1)))) (let ((.def_487 (or .def_486 .def_157))) (let ((.def_488 (not .def_487))) (let ((.def_489 (and .def_488 .def_484))) (let ((.def_490 (not .def_489))) (let ((.def_491 (and .def_490 .def_483))) (let ((.def_492 (not .def_491))) (let ((.def_493 (or .def_492 .def_474))) (let ((.def_494 (not .def_493))) (let ((.def_495 (and .def_494 .def_456))) (let ((.def_496 (or .def_495 .def_408))) (let ((.def_497 (+ .def_35 .def_185))) (let ((.def_498 (< .def_497 (- 1)))) (let ((.def_499 (or .def_186 .def_498))) (let ((.def_500 (not .def_499))) (let ((.def_501 (not .def_49))) (let ((.def_502 (+ .def_1 .def_36))) (let ((.def_503 (< .def_502 1))) (let ((.def_504 (not .def_503))) (let ((.def_505 (and .def_504 .def_501))) (let ((.def_506 (and .def_505 .def_500))) (let ((.def_507 (< .def_0 1))) (let ((.def_508 (+ .def_20 .def_171))) (let ((.def_509 (< .def_508 1))) (let ((.def_510 (or .def_509 .def_507))) (let ((.def_511 (+ .def_171 .def_35))) (let ((.def_512 (< .def_511 (- 1)))) (let ((.def_513 (not .def_512))) (let ((.def_514 (or .def_513 A0))) (let ((.def_515 (and .def_514 .def_510))) (let ((.def_516 (= .def_515 .def_506))) (let ((.def_517 (not .def_516))) (let ((.def_518 (+ .def_14 .def_20))) (let ((.def_519 (< .def_518 1))) (let ((.def_520 (not .def_519))) (let ((.def_521 (+ .def_86 .def_137))) (let ((.def_522 (< .def_521 (- 1)))) (let ((.def_523 (not .def_522))) (let ((.def_524 (and .def_523 .def_520))) (let ((.def_525 (< .def_109 1))) (let ((.def_526 (or .def_525 .def_19))) (let ((.def_527 (not .def_526))) (let ((.def_528 (or .def_527 .def_524))) (let ((.def_529 (not .def_528))) (let ((.def_530 (or A7 A5))) (let ((.def_531 (not .def_530))) (let ((.def_532 (< .def_4 (- 1)))) (let ((.def_533 (or A0 .def_532))) (let ((.def_534 (and .def_533 .def_531))) (let ((.def_535 (not .def_534))) (let ((.def_536 (and .def_535 .def_529))) (let ((.def_537 (not .def_536))) (let ((.def_538 (or .def_537 .def_517))) (let ((.def_539 (not .def_538))) (let ((.def_540 (+ .def_48 .def_93))) (let ((.def_541 (< .def_540 1))) (let ((.def_542 (or A1 .def_541))) (let ((.def_543 (and A6 .def_87))) (let ((.def_544 (not .def_543))) (let ((.def_545 (and .def_544 .def_542))) (let ((.def_546 (not .def_545))) (let ((.def_547 (or .def_52 .def_186))) (let ((.def_548 (not .def_547))) (let ((.def_549 (or .def_32 .def_156))) (let ((.def_550 (or .def_549 .def_548))) (let ((.def_551 (not .def_550))) (let ((.def_552 (and .def_551 .def_546))) (let ((.def_553 (not .def_552))) (let ((.def_554 (+ .def_20 .def_137))) (let ((.def_555 (< .def_554 1))) (let ((.def_556 (not .def_555))) (let ((.def_557 (or .def_556 A1))) (let ((.def_558 (not .def_557))) (let ((.def_559 (< .def_93 (- 1)))) (let ((.def_560 (not .def_559))) (let ((.def_561 (= .def_10 .def_560))) (let ((.def_562 (or .def_561 .def_558))) (let ((.def_563 (+ .def_20 .def_105))) (let ((.def_564 (< .def_563 (- 1)))) (let ((.def_565 (not .def_564))) (let ((.def_566 (and .def_186 .def_565))) (let ((.def_567 (= A2 A9))) (let ((.def_568 (and .def_567 .def_566))) (let ((.def_569 (not .def_568))) (let ((.def_570 (and .def_569 .def_562))) (let ((.def_571 (or .def_570 .def_553))) (let ((.def_572 (and .def_571 .def_539))) (let ((.def_573 (not .def_572))) (let ((.def_574 (+ .def_119 .def_5))) (let ((.def_575 (< .def_574 (- 1)))) (let ((.def_576 (not .def_575))) (let ((.def_577 (and .def_157 .def_576))) (let ((.def_578 (not .def_577))) (let ((.def_579 (and .def_40 A8))) (let ((.def_580 (not .def_579))) (let ((.def_581 (= .def_580 .def_578))) (let ((.def_582 (not .def_581))) (let ((.def_583 (not .def_94))) (let ((.def_584 (or .def_40 .def_583))) (let ((.def_585 (not .def_584))) (let ((.def_586 (< .def_137 1))) (let ((.def_587 (not .def_586))) (let ((.def_588 (or .def_587 .def_168))) (let ((.def_589 (not .def_588))) (let ((.def_590 (and .def_589 .def_585))) (let ((.def_591 (= .def_590 .def_582))) (let ((.def_592 (or .def_27 .def_157))) (let ((.def_593 (not .def_592))) (let ((.def_594 (< .def_137 (- 1)))) (let ((.def_595 (not .def_594))) (let ((.def_596 (or .def_595 .def_302))) (let ((.def_597 (not .def_596))) (let ((.def_598 (or .def_597 .def_593))) (let ((.def_599 (< .def_36 1))) (let ((.def_600 (and .def_599 .def_157))) (let ((.def_601 (not .def_311))) (let ((.def_602 (< .def_119 1))) (let ((.def_603 (not .def_602))) (let ((.def_604 (and .def_603 .def_601))) (let ((.def_605 (and .def_604 .def_600))) (let ((.def_606 (not .def_605))) (let ((.def_607 (or .def_606 .def_598))) (let ((.def_608 (= .def_607 .def_591))) (let ((.def_609 (not .def_608))) (let ((.def_610 (+ .def_105 .def_0))) (let ((.def_611 (< .def_610 1))) (let ((.def_612 (= .def_10 .def_611))) (let ((.def_613 (+ .def_171 .def_185))) (let ((.def_614 (< .def_613 1))) (let ((.def_615 (or .def_614 A4))) (let ((.def_616 (or .def_615 .def_612))) (let ((.def_617 (not .def_616))) (let ((.def_618 (+ .def_36 .def_185))) (let ((.def_619 (< .def_618 (- 1)))) (let ((.def_620 (not .def_619))) (let ((.def_621 (and .def_302 .def_620))) (let ((.def_622 (not .def_621))) (let ((.def_623 (< .def_105 1))) (let ((.def_624 (not .def_623))) (let ((.def_625 (= .def_52 .def_624))) (let ((.def_626 (and .def_625 .def_622))) (let ((.def_627 (or .def_626 .def_617))) (let ((.def_628 (not .def_627))) (let ((.def_629 (+ .def_185 .def_20))) (let ((.def_630 (< .def_629 1))) (let ((.def_631 (not .def_630))) (let ((.def_632 (or .def_337 .def_631))) (let ((.def_633 (not .def_632))) (let ((.def_634 (+ .def_20 .def_95))) (let ((.def_635 (< .def_634 1))) (let ((.def_636 (not .def_635))) (let ((.def_637 (or A0 .def_636))) (let ((.def_638 (and .def_637 .def_633))) (let ((.def_639 (not .def_638))) (let ((.def_640 (+ .def_105 .def_93))) (let ((.def_641 (< .def_640 1))) (let ((.def_642 (not .def_641))) (let ((.def_643 (or .def_642 A0))) (let ((.def_644 (+ .def_36 .def_5))) (let ((.def_645 (< .def_644 (- 1)))) (let ((.def_646 (and .def_645 .def_28))) (let ((.def_647 (not .def_646))) (let ((.def_648 (or .def_647 .def_643))) (let ((.def_649 (not .def_648))) (let ((.def_650 (and .def_649 .def_639))) (let ((.def_651 (or .def_650 .def_628))) (let ((.def_652 (or .def_651 .def_609))) (let ((.def_653 (not .def_652))) (let ((.def_654 (or .def_653 .def_573))) (let ((.def_655 (= .def_654 .def_496))) (let ((.def_656 (or .def_655 .def_327))) (let ((.def_657 (<= x9 1))) (let ((.def_658 (<= 0 x9))) (let ((.def_659 (<= x8 1))) (let ((.def_660 (<= 0 x8))) (let ((.def_661 (<= x7 1))) (let ((.def_662 (<= 0 x7))) (let ((.def_663 (<= x6 1))) (let ((.def_664 (<= 0 x6))) (let ((.def_665 (<= x5 1))) (let ((.def_666 (<= 0 x5))) (let ((.def_667 (<= x4 1))) (let ((.def_668 (<= 0 x4))) (let ((.def_669 (<= x3 1))) (let ((.def_670 (<= 0 x3))) (let ((.def_671 (<= x2 1))) (let ((.def_672 (<= 0 x2))) (let ((.def_673 (<= x1 1))) (let ((.def_674 (<= 0 x1))) (let ((.def_675 (<= x0 1))) (let ((.def_676 (<= 0 x0))) (let ((.def_677 (and .def_676 .def_675 .def_674 .def_673 .def_672 .def_671 .def_670 .def_669 .def_668 .def_667 .def_666 .def_665 .def_664 .def_663 .def_662 .def_661 .def_660 .def_659 .def_658 .def_657 .def_656))) .def_677)))))))))))))))))))))))))))))))))))))))))))))))))))))))))))))))))))))))))))))))))))))))))))))))))))))))))))))))))))))))))))))))))))))))))))))))))))))))))))))))))))))))))))))))))))))))))))))))))))))))))))))))))))))))))))))))))))))))))))))))))))))))))))))))))))))))))))))))))))))))))))))))))))))))))))))))))))))))))))))))))))))))))))))))))))))))))))))))))))))))))))))))))))))))))))))))))))))))))))))))))))))))))))))))))))))))))))))))))))))))))))))))))))))))))))))))))))))))))))))))))))))))))))))))))))))))))))))))))))))))))))))))))))))))))))))))))))))))))))))))))))))))))))))))))))))))))))))))))))))))))))))))))))))))))))))))))))))))))))))))))))))))))))))))))))))))))))))))))))))))
(check-sat)
